(declare-fun temp15947_1 () (_ BitVec 64))
(declare-fun temp15947_2 () (_ BitVec 64))
(declare-fun var77740 () (_ BitVec 64))
(declare-fun k!0 () Bool)
(declare-fun ARGNAME_filter_NAMEEND_DIM () (_ BitVec 64))
(declare-fun ARGNAME_data_format_NAMEEND_STRFMT () (_ BitVec 64))
(declare-fun temp15947_3 () (_ BitVec 64))
(declare-fun ARGNAME_out_backprop_NAMEEND_DIM () (_ BitVec 64))
(declare-fun var77770 () (_ BitVec 64))
(declare-fun temp15947_4 () (_ BitVec 64))
(declare-fun temp15947_5 () (_ BitVec 64))
(declare-fun ARGNAME_filter_NAMEEND_DIMSIZE
             ()
             (Array (_ BitVec 64) (_ BitVec 64)))
(declare-fun temp15947_6 () (_ BitVec 64))
(declare-fun temp15947_7 () (_ BitVec 64))
(declare-fun temp15947_8 () (_ BitVec 64))
(declare-fun temp15947_9 () (_ BitVec 64))
(declare-fun temp15947_10 () (_ BitVec 64))
(declare-fun temp15947_11 () (_ BitVec 64))
(declare-fun temp15947_12 () (_ BitVec 64))
(declare-fun temp15947_13 () (_ BitVec 64))
(declare-fun temp15947_14 () (_ BitVec 64))
(declare-fun temp15947_15 () (_ BitVec 64))
(declare-fun temp15947_16 () (_ BitVec 64))
(declare-fun temp15947_17 () (_ BitVec 64))
(declare-fun temp15947_18 () (_ BitVec 64))
(declare-fun var77799 () (_ BitVec 64))
(declare-fun temp15947_19 () (_ BitVec 64))
(declare-fun ARGNAME_out_backprop_NAMEEND_DIMSIZE
             ()
             (Array (_ BitVec 64) (_ BitVec 64)))
(declare-fun temp15947_20 () (_ BitVec 64))
(declare-fun temp15947_21 () (_ BitVec 64))
(declare-fun temp15947_22 () (_ BitVec 64))
(declare-fun temp15947_23 () (_ BitVec 64))
(declare-fun temp15947_24 () (_ BitVec 64))
(declare-fun temp15947_25 () (_ BitVec 64))
(declare-fun temp15947_26 () (_ BitVec 64))
(declare-fun temp15947_27 () (_ BitVec 64))
(declare-fun temp15947_28 () (_ BitVec 64))
(declare-fun temp15947_29 () (_ BitVec 64))
(declare-fun temp15947_30 () (_ BitVec 64))
(declare-fun temp15947_31 () (_ BitVec 64))
(declare-fun temp15947_32 () (_ BitVec 64))
(declare-fun var77832 () (_ BitVec 64))
(declare-fun temp15947_33 () (_ BitVec 64))
(declare-fun temp15947_34 () (_ BitVec 64))
(declare-fun var77833 () (_ BitVec 64))
(declare-fun var77834 () (_ BitVec 64))
(declare-fun temp15947_35 () (_ BitVec 64))
(declare-fun temp15947_36 () (_ BitVec 64))
(declare-fun var275510 () (_ BitVec 64))
(declare-fun temp15947_37 () (_ BitVec 64))
(declare-fun var275528 () (_ BitVec 64))
(declare-fun temp15947_38 () (_ BitVec 64))
(declare-fun temp15947_39 () (_ BitVec 64))
(declare-fun var406582 () (_ BitVec 64))
(declare-fun temp15947_40 () (_ BitVec 64))
(declare-fun var406600 () (_ BitVec 64))
(declare-fun temp15947_41 () (_ BitVec 64))
(declare-fun temp15947_42 () (_ BitVec 64))
(declare-fun var537654 () (_ BitVec 64))
(declare-fun temp15947_43 () (_ BitVec 64))
(declare-fun var537672 () (_ BitVec 64))
(declare-fun temp15947_44 () (_ BitVec 64))
(declare-fun temp15947_46 () (_ BitVec 64))
(declare-fun temp15947_45 () (_ BitVec 64))
(declare-fun temp15947_48 () (_ BitVec 64))
(declare-fun temp15947_47 () (_ BitVec 64))
(declare-fun temp15947_50 () (_ BitVec 64))
(declare-fun temp15947_49 () (_ BitVec 64))
(declare-fun temp15947_52 () (_ BitVec 64))
(declare-fun temp15947_51 () (_ BitVec 64))
(declare-fun temp15947_54 () (_ BitVec 64))
(declare-fun temp15947_53 () (_ BitVec 64))
(declare-fun temp15947_55 () (_ BitVec 64))
(declare-fun var730187 () (_ BitVec 64))
(declare-fun var730166 () (_ BitVec 64))
(declare-fun var664598 () (_ BitVec 64))
(declare-fun temp15947_56 () (_ BitVec 64))
(declare-fun temp15947_58 () (_ BitVec 64))
(declare-fun temp15947_57 () (_ BitVec 64))
(declare-fun temp15947_60 () (_ BitVec 64))
(declare-fun temp15947_59 () (_ BitVec 64))
(declare-fun temp15947_62 () (_ BitVec 64))
(declare-fun temp15947_61 () (_ BitVec 64))
(declare-fun temp15947_63 () (_ BitVec 64))
(declare-fun var992306 () (_ BitVec 64))
(declare-fun temp15947_64 () (_ BitVec 64))
(declare-fun var992307 () (_ BitVec 64))
(declare-fun var992308 () (_ BitVec 64))
(declare-fun var992304 () (_ BitVec 64))
(declare-fun var599004 () (_ BitVec 64))
(declare-fun temp15947_65 () (_ BitVec 64))
(declare-fun var1057842 () (_ BitVec 64))
(declare-fun temp15947_66 () (_ BitVec 64))
(declare-fun var1057843 () (_ BitVec 64))
(declare-fun var1057844 () (_ BitVec 64))
(declare-fun var1057840 () (_ BitVec 64))
(declare-fun var599011 () (_ BitVec 64))
(declare-fun temp15947_67 () (_ BitVec 64))
(declare-fun var1123378 () (_ BitVec 64))
(declare-fun temp15947_68 () (_ BitVec 64))
(declare-fun var1123379 () (_ BitVec 64))
(declare-fun var1123380 () (_ BitVec 64))
(declare-fun var1123376 () (_ BitVec 64))
(declare-fun var599016 () (_ BitVec 64))
(declare-fun var78095 () (_ BitVec 64))
(declare-fun temp15947_69 () (_ BitVec 64))
(declare-fun temp15947_70 () (_ BitVec 64))
(declare-fun var78096 () (_ BitVec 64))
(declare-fun var78179 () (_ BitVec 64))
(declare-fun temp15947_72 () (_ BitVec 64))
(declare-fun temp15947_71 () (_ BitVec 64))
(declare-fun temp15947_74 () (_ BitVec 64))
(declare-fun temp15947_73 () (_ BitVec 64))
(declare-fun temp15947_75 () (_ BitVec 64))
(declare-fun var78544 () (_ BitVec 64))
(declare-fun temp15947_76 () (_ BitVec 64))
(declare-fun var78545 () (_ BitVec 64))
(assert (or (= ARGNAME_data_format_NAMEEND_STRFMT #x0000000000000000)
    (= ARGNAME_data_format_NAMEEND_STRFMT #x0000000000000001)
    (= ARGNAME_data_format_NAMEEND_STRFMT #x0000000000000002)
    (= ARGNAME_data_format_NAMEEND_STRFMT #x0000000000000003)
    (= ARGNAME_data_format_NAMEEND_STRFMT #x0000000000000004)
    (= ARGNAME_data_format_NAMEEND_STRFMT #x0000000000000005)))
(assert (= temp15947_1 #x0000000000000005))
(assert (= var77740
   (ite (= ARGNAME_filter_NAMEEND_DIM temp15947_1)
        #x0000000000000001
        #x0000000000000000)))
(assert (= temp15947_2 #x0000000000000001))
(assert (= var77740 temp15947_2))
(assert (= temp15947_3 #x0000000000000005))
(assert (= var77770
   (ite (= ARGNAME_out_backprop_NAMEEND_DIM temp15947_3)
        #x0000000000000001
        #x0000000000000000)))
(assert (= temp15947_4 #x0000000000000001))
(assert (= var77770 temp15947_4))
(assert (= temp15947_5 #x0000000000000000))
(assert (= temp15947_6 (select ARGNAME_filter_NAMEEND_DIMSIZE temp15947_5)))
(assert (= temp15947_7 #x0000000000000001))
(assert (= temp15947_8 (select ARGNAME_filter_NAMEEND_DIMSIZE temp15947_7)))
(assert (= temp15947_9 #x0000000000000002))
(assert (= temp15947_10 (select ARGNAME_filter_NAMEEND_DIMSIZE temp15947_9)))
(assert (= temp15947_11 #x0000000000000003))
(assert (= temp15947_12 (select ARGNAME_filter_NAMEEND_DIMSIZE temp15947_11)))
(assert (= temp15947_13 #x0000000000000004))
(assert (= temp15947_14 (select ARGNAME_filter_NAMEEND_DIMSIZE temp15947_13)))
(assert (= temp15947_15 #x0000000000000005))
(assert (= temp15947_16 (select ARGNAME_filter_NAMEEND_DIMSIZE temp15947_15)))
(assert (= temp15947_17 #x0000000000000003))
(assert (= temp15947_18 (select ARGNAME_filter_NAMEEND_DIMSIZE temp15947_17)))
(assert (= var77799 temp15947_18))
(assert (= temp15947_19 #x0000000000000000))
(assert (= temp15947_20 (select ARGNAME_out_backprop_NAMEEND_DIMSIZE temp15947_19)))
(assert (= temp15947_21 #x0000000000000001))
(assert (= temp15947_22 (select ARGNAME_out_backprop_NAMEEND_DIMSIZE temp15947_21)))
(assert (= temp15947_23 #x0000000000000002))
(assert (= temp15947_24 (select ARGNAME_out_backprop_NAMEEND_DIMSIZE temp15947_23)))
(assert (= temp15947_25 #x0000000000000003))
(assert (= temp15947_26 (select ARGNAME_out_backprop_NAMEEND_DIMSIZE temp15947_25)))
(assert (= temp15947_27 #x0000000000000004))
(assert (= temp15947_28 (select ARGNAME_out_backprop_NAMEEND_DIMSIZE temp15947_27)))
(assert (= temp15947_29 #x0000000000000005))
(assert (= temp15947_30 (select ARGNAME_out_backprop_NAMEEND_DIMSIZE temp15947_29)))
(assert (= temp15947_31 #x0000000000000004))
(assert (= temp15947_32 (select ARGNAME_out_backprop_NAMEEND_DIMSIZE temp15947_31)))
(assert (= var77832 temp15947_32))
(assert (= temp15947_33 #x0000000000000004))
(assert (= temp15947_34 (select ARGNAME_filter_NAMEEND_DIMSIZE temp15947_33)))
(assert (= var77833 temp15947_34))
(assert (= var77834 (ite (= var77832 var77833) #x0000000000000001 #x0000000000000000)))
(assert (= temp15947_35 #x0000000000000001))
(assert (= var77834 temp15947_35))
(assert (= temp15947_36 #x0000000000000001))
(assert (= var275510 temp15947_36))
(assert (= temp15947_37 #x0000000000000001))
(assert (= var275528
   (ite (bvslt var275510 temp15947_37) #x0000000000000001 #x0000000000000000)))
(assert (= temp15947_38 #x0000000000000000))
(assert (= var275528 temp15947_38))
(assert (= temp15947_39 #x0000000000000001))
(assert (= var406582 temp15947_39))
(assert (= temp15947_40 #x0000000000000001))
(assert (= var406600
   (ite (bvslt var406582 temp15947_40) #x0000000000000001 #x0000000000000000)))
(assert (= temp15947_41 #x0000000000000000))
(assert (= var406600 temp15947_41))
(assert (= temp15947_42 #x0000000000000001))
(assert (= var537654 temp15947_42))
(assert (= temp15947_43 #x0000000000000001))
(assert (= var537672
   (ite (bvslt var537654 temp15947_43) #x0000000000000001 #x0000000000000000)))
(assert (= temp15947_44 #x0000000000000000))
(assert (= var537672 temp15947_44))
(assert (= temp15947_46 #x0000000000000000))
(assert (= temp15947_45 temp15947_46))
(assert (= temp15947_48 #x0000000000000000))
(assert (= temp15947_47 temp15947_48))
(assert (= temp15947_50 #x00000000000000ff))
(assert (= temp15947_49 temp15947_50))
(assert (= temp15947_52 #x00000000000000ff))
(assert (= temp15947_51 temp15947_52))
(assert (= temp15947_54 #x00000000000000ff))
(assert (= temp15947_53 temp15947_54))
(assert (= temp15947_55 #x0000000000000000))
(assert (= var730187 temp15947_55))
(assert (= var730166 var730187))
(assert (= var664598 var730166))
(assert (= temp15947_56 #x0000000000000000))
(assert (= var664598 temp15947_56))
(assert (= temp15947_58 #x0000000000000000))
(assert (= temp15947_57 temp15947_58))
(assert (= temp15947_60 #x0000000000000000))
(assert (= temp15947_59 temp15947_60))
(assert (= temp15947_62 #x0000000000000000))
(assert (= temp15947_61 temp15947_62))
(assert (= temp15947_63 #x0000000000008000))
(assert (= var992306 temp15947_63))
(assert (= temp15947_64 #x0000000000000001))
(assert (= var992307
   (ite (bvslt temp15947_61 temp15947_64) #x0000000000000001 #x0000000000000000)))
(assert (= var992308 (ite (= var992307 #x0000000000000001) var992306 temp15947_61)))
(assert (= var992304 var992308))
(assert (= var599004 var992304))
(assert (= temp15947_65 #x0000000000040000))
(assert (= var1057842 temp15947_65))
(assert (= temp15947_66 #x0000000000000001))
(assert (= var1057843
   (ite (bvslt temp15947_59 temp15947_66) #x0000000000000001 #x0000000000000000)))
(assert (= var1057844 (ite (= var1057843 #x0000000000000001) var1057842 temp15947_59)))
(assert (= var1057840 var1057844))
(assert (= var599011 var1057840))
(assert (= temp15947_67 #x0000000000200000))
(assert (= var1123378 temp15947_67))
(assert (= temp15947_68 #x0000000000000001))
(assert (= var1123379
   (ite (bvslt temp15947_57 temp15947_68) #x0000000000000001 #x0000000000000000)))
(assert (= var1123380 (ite (= var1123379 #x0000000000000001) var1123378 temp15947_57)))
(assert (= var1123376 var1123380))
(assert (= var599016 var1123376))
(assert (= var78095 var599016))
(assert (= temp15947_69 #x0000000000000003))
(assert (= temp15947_70 #xffffffffffffffff))
(assert (= var78179 (bvadd var78096 temp15947_70)))
(assert (= temp15947_72 #x0000000000000001))
(assert (= temp15947_71 temp15947_72))
(assert (= temp15947_74 #x0000000000000001))
(assert (= temp15947_73 temp15947_74))
(assert (= temp15947_75 #x0000000000000000))
(assert (= var78544 temp15947_75))
(assert (= temp15947_76 #x0000000000000001))
(assert (= var78545 (bvadd var78544 temp15947_76)))
(model-add temp15947_1 () (_ BitVec 64) #x0000000000000005)
(model-add temp15947_2 () (_ BitVec 64) #x0000000000000001)
(model-add var77740 () (_ BitVec 64) #x0000000000000001)
(model-del k!0)
(model-add ARGNAME_filter_NAMEEND_DIM
           ()
           (_ BitVec 64)
           (ite k!0 #x0000000000000005 (bvnot #x0000000000000005)))


